# Sample input file for intact UCG model simulation

units             real
neighbor          8.0 bin
boundary          f f f

atom_style        bond
pair_style        lj/cut 5.0

read_data         UCG_intact.data
pair_coeff        * * 0.000 1.0

timestep          100
thermo            10
thermo_style      multi

fix               1 all nve
fix               2 all reduce file1.txt file2.txt
fix               3 all langevin 300.0 300.0 10000.0 837310

comm_modify       mode single cutoff 2000 vel no

dump              1 all dcd 100 UCG_intact.dcd

run               1000
