# Sample input file for AA/UCG model simulation

units           real
neighbor        2.0 bin
neigh_modify    delay 0 every 1
boundary        f f f

dielectric      78.36
atom_style      full
pair_style      hybrid lj/cut/coul/cut 10.0
bond_style      hybrid harmonic
angle_style     hybrid harmonic
dihedral_style  hybrid fourier
improper_style  hybrid fourier
special_bonds   amber

read_data       AA_UCG.data

timestep        2
thermo          10
thermo_style    multi

minimize        1e-6 1e-6 1000 10000
reset_timestep  0

fix             1 all nve
fix             2 all reduce file1.txt file2.txt
fix             3 all langevin 300.0 300.0 10000.0 837310

comm_modify     mode single cutoff 2000 vel no

dump            1 all dcd 100 AA_UCG.dcd

run             1000
